5
30
101
40	24
1	2	7	4	16	2	
2	4	5	6	7	4	16	3	4	2	
3	5	5	11	6	7	9	5	8	5	17	2	
4	2	4	5	22	3	
5	2	6	5	7	2	
6	2	7	10	6	2	
7	3	11	4	7	3	4	2	
8	4	6	11	10	4	9	3	22	2	
9	5	8	8	7	4	4	3	4	3	14	2	
10	2	6	11	6	4	
11	4	12	6	17	4	6	4	12	3	
12	5	7	9	4	6	19	4	15	4	6	3	
13	5	8	12	5	11	10	5	13	4	23	2	
14	5	6	11	6	9	5	9	6	6	5	3	
15	4	5	10	5	4	15	3	12	3	
16	3	5	10	4	6	10	5	
17	3	8	9	20	4	6	3	
18	1	4	12	
19	2	11	3	8	2	
20	4	10	6	12	5	5	4	10	3	
21	4	8	10	7	7	7	5	8	2	
22	5	17	4	10	4	7	2	7	2	5	2	
23	4	7	6	14	4	5	3	5	3	
24	5	10	5	8	5	21	4	17	4	23	2	
25	4	7	7	6	5	9	4	5	4	
26	3	7	6	8	4	19	2	
27	2	15	3	10	2	
28	4	7	8	8	6	5	5	24	3	
29	1	24	3	
30	2	17	4	16	3	
